c description: There is a graph of 8 vertices with a 2-clique and a 4-coloring
c generator: CNFgen (0.9.0)
c copyright: (C) 2012-2020 Massimo Lauria <massimo.lauria@uniroma1.it>
c url: https://massimolauria.net/cnfgen
c
p cnf 76 290
-29 -30 0
-29 -31 0
-29 -32 0
-29 -33 0
-29 -34 0
-29 -35 0
-29 -36 0
-30 -31 0
-30 -32 0
-30 -33 0
-30 -34 0
-30 -35 0
-30 -36 0
-31 -32 0
-31 -33 0
-31 -34 0
-31 -35 0
-31 -36 0
-32 -33 0
-32 -34 0
-32 -35 0
-32 -36 0
-33 -34 0
-33 -35 0
-33 -36 0
-34 -35 0
-34 -36 0
-35 -36 0
29 30 31 32 33 34 35 36 0
-37 -38 0
-37 -39 0
-37 -40 0
-37 -41 0
-37 -42 0
-37 -43 0
-37 -44 0
-38 -39 0
-38 -40 0
-38 -41 0
-38 -42 0
-38 -43 0
-38 -44 0
-39 -40 0
-39 -41 0
-39 -42 0
-39 -43 0
-39 -44 0
-40 -41 0
-40 -42 0
-40 -43 0
-40 -44 0
-41 -42 0
-41 -43 0
-41 -44 0
-42 -43 0
-42 -44 0
-43 -44 0
37 38 39 40 41 42 43 44 0
-29 -37 0
-30 -38 0
-31 -39 0
-32 -40 0
-33 -41 0
-34 -42 0
-35 -43 0
-36 -44 0
1 -29 -38 0
1 -37 -30 0
2 -29 -39 0
2 -37 -31 0
3 -29 -40 0
3 -37 -32 0
4 -29 -41 0
4 -37 -33 0
5 -29 -42 0
5 -37 -34 0
6 -29 -43 0
6 -37 -35 0
7 -29 -44 0
7 -37 -36 0
8 -30 -39 0
8 -38 -31 0
9 -30 -40 0
9 -38 -32 0
10 -30 -41 0
10 -38 -33 0
11 -30 -42 0
11 -38 -34 0
12 -30 -43 0
12 -38 -35 0
13 -30 -44 0
13 -38 -36 0
14 -31 -40 0
14 -39 -32 0
15 -31 -41 0
15 -39 -33 0
16 -31 -42 0
16 -39 -34 0
17 -31 -43 0
17 -39 -35 0
18 -31 -44 0
18 -39 -36 0
19 -32 -41 0
19 -40 -33 0
20 -32 -42 0
20 -40 -34 0
21 -32 -43 0
21 -40 -35 0
22 -32 -44 0
22 -40 -36 0
23 -33 -42 0
23 -41 -34 0
24 -33 -43 0
24 -41 -35 0
25 -33 -44 0
25 -41 -36 0
26 -34 -43 0
26 -42 -35 0
27 -34 -44 0
27 -42 -36 0
28 -35 -44 0
28 -43 -36 0
-45 -46 0
-45 -47 0
-45 -48 0
-46 -47 0
-46 -48 0
-47 -48 0
45 46 47 48 0
-49 -50 0
-49 -51 0
-49 -52 0
-50 -51 0
-50 -52 0
-51 -52 0
49 50 51 52 0
-53 -54 0
-53 -55 0
-53 -56 0
-54 -55 0
-54 -56 0
-55 -56 0
53 54 55 56 0
-57 -58 0
-57 -59 0
-57 -60 0
-58 -59 0
-58 -60 0
-59 -60 0
57 58 59 60 0
-61 -62 0
-61 -63 0
-61 -64 0
-62 -63 0
-62 -64 0
-63 -64 0
61 62 63 64 0
-65 -66 0
-65 -67 0
-65 -68 0
-66 -67 0
-66 -68 0
-67 -68 0
65 66 67 68 0
-69 -70 0
-69 -71 0
-69 -72 0
-70 -71 0
-70 -72 0
-71 -72 0
69 70 71 72 0
-73 -74 0
-73 -75 0
-73 -76 0
-74 -75 0
-74 -76 0
-75 -76 0
73 74 75 76 0
-1 -45 -49 0
-1 -46 -50 0
-1 -47 -51 0
-1 -48 -52 0
-2 -45 -53 0
-2 -46 -54 0
-2 -47 -55 0
-2 -48 -56 0
-3 -45 -57 0
-3 -46 -58 0
-3 -47 -59 0
-3 -48 -60 0
-4 -45 -61 0
-4 -46 -62 0
-4 -47 -63 0
-4 -48 -64 0
-5 -45 -65 0
-5 -46 -66 0
-5 -47 -67 0
-5 -48 -68 0
-6 -45 -69 0
-6 -46 -70 0
-6 -47 -71 0
-6 -48 -72 0
-7 -45 -73 0
-7 -46 -74 0
-7 -47 -75 0
-7 -48 -76 0
-8 -49 -53 0
-8 -50 -54 0
-8 -51 -55 0
-8 -52 -56 0
-9 -49 -57 0
-9 -50 -58 0
-9 -51 -59 0
-9 -52 -60 0
-10 -49 -61 0
-10 -50 -62 0
-10 -51 -63 0
-10 -52 -64 0
-11 -49 -65 0
-11 -50 -66 0
-11 -51 -67 0
-11 -52 -68 0
-12 -49 -69 0
-12 -50 -70 0
-12 -51 -71 0
-12 -52 -72 0
-13 -49 -73 0
-13 -50 -74 0
-13 -51 -75 0
-13 -52 -76 0
-14 -53 -57 0
-14 -54 -58 0
-14 -55 -59 0
-14 -56 -60 0
-15 -53 -61 0
-15 -54 -62 0
-15 -55 -63 0
-15 -56 -64 0
-16 -53 -65 0
-16 -54 -66 0
-16 -55 -67 0
-16 -56 -68 0
-17 -53 -69 0
-17 -54 -70 0
-17 -55 -71 0
-17 -56 -72 0
-18 -53 -73 0
-18 -54 -74 0
-18 -55 -75 0
-18 -56 -76 0
-19 -57 -61 0
-19 -58 -62 0
-19 -59 -63 0
-19 -60 -64 0
-20 -57 -65 0
-20 -58 -66 0
-20 -59 -67 0
-20 -60 -68 0
-21 -57 -69 0
-21 -58 -70 0
-21 -59 -71 0
-21 -60 -72 0
-22 -57 -73 0
-22 -58 -74 0
-22 -59 -75 0
-22 -60 -76 0
-23 -61 -65 0
-23 -62 -66 0
-23 -63 -67 0
-23 -64 -68 0
-24 -61 -69 0
-24 -62 -70 0
-24 -63 -71 0
-24 -64 -72 0
-25 -61 -73 0
-25 -62 -74 0
-25 -63 -75 0
-25 -64 -76 0
-26 -65 -69 0
-26 -66 -70 0
-26 -67 -71 0
-26 -68 -72 0
-27 -65 -73 0
-27 -66 -74 0
-27 -67 -75 0
-27 -68 -76 0
-28 -69 -73 0
-28 -70 -74 0
-28 -71 -75 0
-28 -72 -76 0